
Gurobi 8.1.1 (mac64, Python) logging started Mon Jun  1 21:25:36 2020


--------------------------------------------
Warning: your license will expire in 5 days
--------------------------------------------

Academic license - for non-commercial use only
